(set-info :smt-lib-version 2.6)
(set-logic QF_S)
(set-info :source |
Generated by: Joel Day, Thorsten Ehlers, Mitja Kulczynski, Federico Mora, Florin Manea, Dirk Nowotka, Danny Poulsen, Zhengyang Lu
Application: Test WOORPJE
Target solver: WOORPJE
Publications: Day, J. D., Ehlers, T., Kulczynski, M., Manea, F., Nowotka, D., & Poulsen, D. B. (2019). On solving word equations using SAT. In RP 2019
Description: Transoformed and expanded from Track02
|)
(set-info :license "https://creativecommons.org/licenses/by/4.0/")
(set-info :category "random")
(set-info :status unknown)

(declare-fun S () String)
(declare-fun H () String)
(declare-fun K () String)
(declare-fun R () String)
(declare-fun U () String)
(declare-fun G () String)
(declare-fun M () String)
(declare-fun P () String)
(assert (= (str.++  "aaaa" G G "aaaaa" G G "aa" G "aaaaa" G G "aaaaa" G G "aa" G "b" K "a" K K "aa" K "ab" P P "b" S S "ba")  (str.++  "a" H G G G "a" G M M M M "b" P M P M "b" R R "b" U U "baa") ))
(check-sat)

(exit)
